Route #1: 44 12 9 49 47 26 18 4 25
Route #2: 5 39
Route #3: 23 41 45 46 22 38
Route #4: 14 30 20 36 11 16 24 33
Route #5: 43 32 19 29 28 1
Route #6: 15 8 17 42 21 3
Route #7: 13 35 10 31 6
Route #8: 27 37 7 40 48 34 2
Cost 1354